HFSDDW
15	9	3
0	27	1	12	2	55
0	66	1	75	2	85
0	90	1	47	2	37
0	1	1	6	2	79
0	48	1	8	2	39
0	77	1	80	2	54
0	67	1	79	2	20
0	32	1	62	2	44
0	62	1	74	2	9
0	95	1	6	2	62
0	58	1	59	2	28
0	44	1	50	2	33
0	82	1	80	2	79
0	29	1	30	2	63
0	89	1	38	2	8
LBCmax: 343
RELDUE
-1	154	7	9
-1	121	4	7
-1	171	4	5
-1	164	5	1
-1	129	6	1
-1	124	9	9
-1	167	7	4
-1	138	5	6
-1	165	4	3
-1	148	4	8
-1	168	5	1
-1	136	1	7
-1	110	3	6
-1	105	1	4
-1	103	8	5
DDW
140	168
111	131
157	185
151	177
121	137
119	129
162	172
135	141
148	182
138	158
163	173
132	140
104	116
96	114
98	108
